benchmark/results/graph__15-1000-0.10-03_19/graph__15-1000-0.10-03_19_QuintonOs_Benders_sub.lp
\ This file has been generated by DOcplex
\ ENCODING=ISO-8859-1
\Problem name: Quinton Bounded Benders_dual_sub

Minimize
 obj: 0.002380952381 pi_nr_a0 + 0.000914913083 pi_nr_a1
      + 0.001349527665 pi_nr_a2 + 0.001307189542 pi_nr_a3
      + 0.001536098310 pi_nr_a4 + 0.001083423619 pi_nr_a5
      + 0.001176470588 pi_nr_a6 + 0.001893939394 pi_nr_a7
      + 0.001164144354 pi_nr_a8 + 0.000868055556 pi_nr_a9
      + 0.001027749229 pi_nr_a10 + 0.002409638554 pi_nr_a11
      + 0.001345895020 pi_nr_a12 + 0.001338688086 pi_nr_a13
      + 0.000957854406 pi_nr_a14 + pi_p_a3_a2 + pi_p_a6_a0 + 2 pi_p_a10_a2
      + 2 pi_p_a10_a11 + pi_p_a14_a0 + pi_p_a4_a11 + pi_p_a3_a6 + pi_p_a9_a12
      + pi_p_a10_a5 + 1277 pi_d_a0_a1_proc_0 + 1312 pi_d_a1_a0_proc_0
      + 2606 pi_d_a0_a2_proc_0 + 1312 pi_d_a0_a2_proc_1 + 2571 pi_d_a2_a0_proc_0
      + 1277 pi_d_a2_a0_proc_1 + pi_d_a3_a0_proc_2 + 1312 pi_d_a0_a4_proc_2
      + 2606 pi_d_a0_a4_proc_0 + 1312 pi_d_a0_a4_proc_1 + 1277 pi_d_a4_a0_proc_2
      + 2571 pi_d_a4_a0_proc_0 + 1277 pi_d_a4_a0_proc_1 + 2588 pi_d_a0_a5_proc_1
      + pi_d_a5_a0_proc_2 + 2589 pi_d_a5_a0_proc_1 + 1312 pi_d_a0_a6_proc_2
      + 1312 pi_d_a0_a6_proc_0 + 2606 pi_d_a0_a6_proc_1 + 1277 pi_d_a6_a0_proc_2
      + 1277 pi_d_a6_a0_proc_0 + 2571 pi_d_a6_a0_proc_1 + 1312 pi_d_a0_a7_proc_2
      + 1312 pi_d_a0_a7_proc_0 + 1277 pi_d_a7_a0_proc_2 + 1277 pi_d_a7_a0_proc_0
      + 1312 pi_d_a0_a8_proc_2 + 1312 pi_d_a0_a8_proc_1 + 1277 pi_d_a8_a0_proc_2
      + 1277 pi_d_a8_a0_proc_1 + 2588 pi_d_a0_a9_proc_0 + 2588 pi_d_a0_a9_proc_1
      + pi_d_a9_a0_proc_2 + 2589 pi_d_a9_a0_proc_0 + 2589 pi_d_a9_a0_proc_1
      + 1312 pi_d_a0_a10_proc_0 + 2606 pi_d_a0_a10_proc_1
      + 1277 pi_d_a10_a0_proc_0 + 2571 pi_d_a10_a0_proc_1
      + 1312 pi_d_a0_a11_proc_2 + 1312 pi_d_a0_a11_proc_1
      + 1277 pi_d_a11_a0_proc_2 + 1277 pi_d_a11_a0_proc_1
      + 1312 pi_d_a0_a12_proc_2 + 1312 pi_d_a0_a12_proc_0
      + 2606 pi_d_a0_a12_proc_1 + 1277 pi_d_a12_a0_proc_2
      + 1277 pi_d_a12_a0_proc_0 + 2571 pi_d_a12_a0_proc_1
      + 1312 pi_d_a0_a13_proc_2 + 1312 pi_d_a0_a13_proc_0
      + 2606 pi_d_a0_a13_proc_1 + 1277 pi_d_a13_a0_proc_2
      + 1277 pi_d_a13_a0_proc_0 + 2571 pi_d_a13_a0_proc_1 + pi_d_a14_a0_proc_2
      + 1312 pi_d_a1_a2_proc_0 + 1277 pi_d_a2_a1_proc_0 + 1312 pi_d_a1_a4_proc_0
      + 1277 pi_d_a4_a1_proc_0 + pi_d_a6_a1_proc_0 + pi_d_a1_a7_proc_0
      + 1312 pi_d_a1_a9_proc_0 + 1277 pi_d_a9_a1_proc_0 + pi_d_a10_a1_proc_0
      + pi_d_a1_a12_proc_0 - 17 pi_d_a1_a13_proc_0 + 18 pi_d_a13_a1_proc_0
      + 2588 pi_d_a2_a4_proc_0 + 2589 pi_d_a4_a2_proc_0 + pi_d_a4_a2_proc_1
      + 1312 pi_d_a2_a5_proc_1 + 1277 pi_d_a5_a2_proc_1 + 1312 pi_d_a2_a6_proc_0
      + 1312 pi_d_a2_a6_proc_1 + 1277 pi_d_a6_a2_proc_0 + 1277 pi_d_a6_a2_proc_1
      + 1312 pi_d_a2_a7_proc_0 + 1277 pi_d_a7_a2_proc_0 + pi_d_a8_a2_proc_1
      + 2606 pi_d_a2_a9_proc_0 + 1312 pi_d_a2_a9_proc_1 + 2571 pi_d_a9_a2_proc_0
      + 1277 pi_d_a9_a2_proc_1 + 1312 pi_d_a2_a10_proc_0
      + 1312 pi_d_a2_a10_proc_1 + 1277 pi_d_a10_a2_proc_0
      + 1277 pi_d_a10_a2_proc_1 + pi_d_a2_a11_proc_1 + 1277 pi_d_a2_a12_proc_0
      + 1277 pi_d_a2_a12_proc_1 + 1312 pi_d_a12_a2_proc_0
      + 1312 pi_d_a12_a2_proc_1 + 1277 pi_d_a2_a13_proc_0
      + 1277 pi_d_a2_a13_proc_1 + 1312 pi_d_a13_a2_proc_0
      + 1312 pi_d_a13_a2_proc_1 + 1312 pi_d_a3_a4_proc_2
      + 1277 pi_d_a4_a3_proc_2 + pi_d_a3_a5_proc_2 + 1277 pi_d_a3_a6_proc_2
      + 1312 pi_d_a6_a3_proc_2 + 1277 pi_d_a3_a7_proc_2 + 1312 pi_d_a7_a3_proc_2
      + 1312 pi_d_a3_a8_proc_2 + 1277 pi_d_a8_a3_proc_2 + pi_d_a3_a9_proc_2
      + 1312 pi_d_a3_a11_proc_2 + 1277 pi_d_a11_a3_proc_2
      + 1277 pi_d_a3_a12_proc_2 + 1312 pi_d_a12_a3_proc_2
      + 1312 pi_d_a3_a13_proc_2 + 1277 pi_d_a13_a3_proc_2 + pi_d_a3_a14_proc_2
      + 1277 pi_d_a4_a5_proc_2 + 1277 pi_d_a4_a5_proc_1 + 1312 pi_d_a5_a4_proc_2
      + 1312 pi_d_a5_a4_proc_1 + 2606 pi_d_a4_a6_proc_2 + 1312 pi_d_a4_a6_proc_0
      + 1312 pi_d_a4_a6_proc_1 + 2571 pi_d_a6_a4_proc_2 + 1277 pi_d_a6_a4_proc_0
      + 1277 pi_d_a6_a4_proc_1 + 2606 pi_d_a4_a7_proc_2 + 1312 pi_d_a4_a7_proc_0
      + 2571 pi_d_a7_a4_proc_2 + 1277 pi_d_a7_a4_proc_0 + 2589 pi_d_a4_a8_proc_2
      + pi_d_a4_a8_proc_1 + 2588 pi_d_a8_a4_proc_2 + 1312 pi_d_a4_a9_proc_2
      + 2606 pi_d_a4_a9_proc_0 + 1312 pi_d_a4_a9_proc_1 + 1277 pi_d_a9_a4_proc_2
      + 2571 pi_d_a9_a4_proc_0 + 1277 pi_d_a9_a4_proc_1
      + 1277 pi_d_a4_a10_proc_0 + 1277 pi_d_a4_a10_proc_1
      + 1312 pi_d_a10_a4_proc_0 + 1312 pi_d_a10_a4_proc_1
      + 2589 pi_d_a4_a11_proc_2 + pi_d_a4_a11_proc_1 + 2588 pi_d_a11_a4_proc_2
      + 2599 pi_d_a4_a12_proc_2 + 1305 pi_d_a4_a12_proc_0
      + 1305 pi_d_a4_a12_proc_1 + 2578 pi_d_a12_a4_proc_2
      + 1284 pi_d_a12_a4_proc_0 + 1284 pi_d_a12_a4_proc_1
      + 2606 pi_d_a4_a13_proc_2 + 1312 pi_d_a4_a13_proc_0
      + 1312 pi_d_a4_a13_proc_1 + 2571 pi_d_a13_a4_proc_2
      + 1277 pi_d_a13_a4_proc_0 + 1277 pi_d_a13_a4_proc_1
      + 1277 pi_d_a4_a14_proc_2 + 1312 pi_d_a14_a4_proc_2
      + 1312 pi_d_a5_a6_proc_2 + 2606 pi_d_a5_a6_proc_1 + 1277 pi_d_a6_a5_proc_2
      + 2571 pi_d_a6_a5_proc_1 + 1277 pi_d_a5_a7_proc_2 + 1312 pi_d_a7_a5_proc_2
      + 1312 pi_d_a5_a8_proc_2 + 1312 pi_d_a5_a8_proc_1 + 1277 pi_d_a8_a5_proc_2
      + 1277 pi_d_a8_a5_proc_1 + 2588 pi_d_a5_a9_proc_1 + pi_d_a9_a5_proc_2
      + 2589 pi_d_a9_a5_proc_1 + 2606 pi_d_a5_a10_proc_1
      + 2571 pi_d_a10_a5_proc_1 + 1312 pi_d_a5_a11_proc_2
      + 1312 pi_d_a5_a11_proc_1 + 1277 pi_d_a11_a5_proc_2
      + 1277 pi_d_a11_a5_proc_1 + 1277 pi_d_a5_a12_proc_2
      + 2571 pi_d_a5_a12_proc_1 + 1312 pi_d_a12_a5_proc_2
      + 2606 pi_d_a12_a5_proc_1 + 1312 pi_d_a5_a13_proc_2
      + 2606 pi_d_a5_a13_proc_1 + 1277 pi_d_a13_a5_proc_2
      + 2571 pi_d_a13_a5_proc_1 + pi_d_a14_a5_proc_2 + 2589 pi_d_a6_a7_proc_2
      + pi_d_a6_a7_proc_0 + 2588 pi_d_a7_a6_proc_2 + 2606 pi_d_a6_a8_proc_2
      + 1312 pi_d_a6_a8_proc_1 + 2571 pi_d_a8_a6_proc_2 + 1277 pi_d_a8_a6_proc_1
      + 1277 pi_d_a6_a9_proc_2 + 1277 pi_d_a6_a9_proc_0 + 2571 pi_d_a6_a9_proc_1
      + 1312 pi_d_a9_a6_proc_2 + 1312 pi_d_a9_a6_proc_0 + 2606 pi_d_a9_a6_proc_1
      + 2588 pi_d_a6_a10_proc_1 + pi_d_a10_a6_proc_0 + 2589 pi_d_a10_a6_proc_1
      + 2606 pi_d_a6_a11_proc_2 + 1312 pi_d_a6_a11_proc_1
      + 2571 pi_d_a11_a6_proc_2 + 1277 pi_d_a11_a6_proc_1
      + 2589 pi_d_a6_a12_proc_2 + pi_d_a6_a12_proc_0 + 2589 pi_d_a6_a12_proc_1
      + 2588 pi_d_a12_a6_proc_2 + 2588 pi_d_a12_a6_proc_1
      + 2571 pi_d_a6_a13_proc_2 - 17 pi_d_a6_a13_proc_0
      + 2571 pi_d_a6_a13_proc_1 + 2606 pi_d_a13_a6_proc_2
      + 18 pi_d_a13_a6_proc_0 + 2606 pi_d_a13_a6_proc_1
      + 1277 pi_d_a6_a14_proc_2 + 1312 pi_d_a14_a6_proc_2
      + 2606 pi_d_a7_a8_proc_2 + 2571 pi_d_a8_a7_proc_2 + 1277 pi_d_a7_a9_proc_2
      + 1277 pi_d_a7_a9_proc_0 + 1312 pi_d_a9_a7_proc_2 + 1312 pi_d_a9_a7_proc_0
      + pi_d_a10_a7_proc_0 + 2606 pi_d_a7_a11_proc_2 + 2571 pi_d_a11_a7_proc_2
      + 2588 pi_d_a7_a12_proc_2 + 2589 pi_d_a12_a7_proc_2 + pi_d_a12_a7_proc_0
      + 2571 pi_d_a7_a13_proc_2 - 17 pi_d_a7_a13_proc_0
      + 2606 pi_d_a13_a7_proc_2 + 18 pi_d_a13_a7_proc_0
      + 1312 pi_d_a7_a14_proc_2 + 1277 pi_d_a14_a7_proc_2
      + 1312 pi_d_a8_a9_proc_2 + 1312 pi_d_a8_a9_proc_1 + 1277 pi_d_a9_a8_proc_2
      + 1277 pi_d_a9_a8_proc_1 + 1277 pi_d_a8_a10_proc_1
      + 1312 pi_d_a10_a8_proc_1 + 2589 pi_d_a8_a11_proc_2 + pi_d_a8_a11_proc_1
      + 2588 pi_d_a11_a8_proc_2 + 2606 pi_d_a8_a12_proc_2
      + 1312 pi_d_a8_a12_proc_1 + 2571 pi_d_a12_a8_proc_2
      + 1277 pi_d_a12_a8_proc_1 + 2571 pi_d_a8_a13_proc_2
      + 1277 pi_d_a8_a13_proc_1 + 2606 pi_d_a13_a8_proc_2
      + 1312 pi_d_a13_a8_proc_1 + 1277 pi_d_a8_a14_proc_2
      + 1312 pi_d_a14_a8_proc_2 + 1312 pi_d_a9_a10_proc_0
      + 2606 pi_d_a9_a10_proc_1 + 1277 pi_d_a10_a9_proc_0
      + 2571 pi_d_a10_a9_proc_1 + 1312 pi_d_a9_a11_proc_2
      + 1312 pi_d_a9_a11_proc_1 + 1277 pi_d_a11_a9_proc_2
      + 1277 pi_d_a11_a9_proc_1 + 1277 pi_d_a9_a12_proc_2
      + 1277 pi_d_a9_a12_proc_0 + 2571 pi_d_a9_a12_proc_1
      + 1312 pi_d_a12_a9_proc_2 + 1312 pi_d_a12_a9_proc_0
      + 2606 pi_d_a12_a9_proc_1 + 1277 pi_d_a9_a13_proc_2
      + 1277 pi_d_a9_a13_proc_0 + 2571 pi_d_a9_a13_proc_1
      + 1312 pi_d_a13_a9_proc_2 + 1312 pi_d_a13_a9_proc_0
      + 2606 pi_d_a13_a9_proc_1 + pi_d_a14_a9_proc_2 + 1312 pi_d_a10_a11_proc_1
      + 1277 pi_d_a11_a10_proc_1 + pi_d_a10_a12_proc_0
      + 2589 pi_d_a10_a12_proc_1 + 2588 pi_d_a12_a10_proc_1
      - 17 pi_d_a10_a13_proc_0 + 2571 pi_d_a10_a13_proc_1
      + 18 pi_d_a13_a10_proc_0 + 2606 pi_d_a13_a10_proc_1
      + 2606 pi_d_a11_a12_proc_2 + 1312 pi_d_a11_a12_proc_1
      + 2571 pi_d_a12_a11_proc_2 + 1277 pi_d_a12_a11_proc_1
      + 2606 pi_d_a11_a13_proc_2 + 1312 pi_d_a11_a13_proc_1
      + 2571 pi_d_a13_a11_proc_2 + 1277 pi_d_a13_a11_proc_1
      + 1312 pi_d_a11_a14_proc_2 + 1277 pi_d_a14_a11_proc_2
      + 2571 pi_d_a12_a13_proc_2 - 17 pi_d_a12_a13_proc_0
      + 2571 pi_d_a12_a13_proc_1 + 2606 pi_d_a13_a12_proc_2
      + 18 pi_d_a13_a12_proc_0 + 2606 pi_d_a13_a12_proc_1
      + 1312 pi_d_a12_a14_proc_2 + 1277 pi_d_a14_a12_proc_2
      + 1312 pi_d_a13_a14_proc_2 + 1277 pi_d_a14_a13_proc_2 + pi_y2_a0_proc_2
      + pi_y2_a1_proc_0 + pi_y2_a2_proc_1 + pi_y2_a3_proc_2 + pi_y2_a4_proc_1
      + pi_y2_a5_proc_2 + pi_y2_a6_proc_0 + pi_y2_a7_proc_0 + pi_y2_a8_proc_1
      + pi_y2_a9_proc_2 + pi_y2_a10_proc_0 + pi_y2_a11_proc_1 + pi_y2_a12_proc_0
      + pi_y2_a13_proc_0 + pi_y2_a14_proc_2
Subject To
 c1: pi_nr_a0 + pi_nr_a1 + pi_nr_a2 + pi_nr_a3 + pi_nr_a4 + pi_nr_a5 + pi_nr_a6
     + pi_nr_a7 + pi_nr_a8 + pi_nr_a9 + pi_nr_a10 + pi_nr_a11 + pi_nr_a12
     + pi_nr_a13 + pi_nr_a14 - pi_y1_a0 - pi_y1_a1 - pi_y1_a2 - pi_y1_a3
     - pi_y1_a4 - pi_y1_a5 - pi_y1_a6 - pi_y1_a7 - pi_y1_a8 - pi_y1_a9
     - pi_y1_a10 - pi_y1_a11 - pi_y1_a12 - pi_y1_a13 - pi_y1_a14 >= 1
 c2: pi_p_a0_a1 - pi_p_a6_a0 - pi_p_a14_a0 + pi_p_a0_a6 + pi_p_a0_a11
     + pi_d_a0_a1_proc_0 - pi_d_a1_a0_proc_0 + pi_d_a0_a2_proc_0
     + pi_d_a0_a2_proc_1 - pi_d_a2_a0_proc_0 - pi_d_a2_a0_proc_1
     + pi_d_a0_a3_proc_2 - pi_d_a3_a0_proc_2 + pi_d_a0_a4_proc_2
     + pi_d_a0_a4_proc_0 + pi_d_a0_a4_proc_1 - pi_d_a4_a0_proc_2
     - pi_d_a4_a0_proc_0 - pi_d_a4_a0_proc_1 + pi_d_a0_a5_proc_2
     + pi_d_a0_a5_proc_1 - pi_d_a5_a0_proc_2 - pi_d_a5_a0_proc_1
     + pi_d_a0_a6_proc_2 + pi_d_a0_a6_proc_0 + pi_d_a0_a6_proc_1
     - pi_d_a6_a0_proc_2 - pi_d_a6_a0_proc_0 - pi_d_a6_a0_proc_1
     + pi_d_a0_a7_proc_2 + pi_d_a0_a7_proc_0 - pi_d_a7_a0_proc_2
     - pi_d_a7_a0_proc_0 + pi_d_a0_a8_proc_2 + pi_d_a0_a8_proc_1
     - pi_d_a8_a0_proc_2 - pi_d_a8_a0_proc_1 + pi_d_a0_a9_proc_2
     + pi_d_a0_a9_proc_0 + pi_d_a0_a9_proc_1 - pi_d_a9_a0_proc_2
     - pi_d_a9_a0_proc_0 - pi_d_a9_a0_proc_1 + pi_d_a0_a10_proc_0
     + pi_d_a0_a10_proc_1 - pi_d_a10_a0_proc_0 - pi_d_a10_a0_proc_1
     + pi_d_a0_a11_proc_2 + pi_d_a0_a11_proc_1 - pi_d_a11_a0_proc_2
     - pi_d_a11_a0_proc_1 + pi_d_a0_a12_proc_2 + pi_d_a0_a12_proc_0
     + pi_d_a0_a12_proc_1 - pi_d_a12_a0_proc_2 - pi_d_a12_a0_proc_0
     - pi_d_a12_a0_proc_1 + pi_d_a0_a13_proc_2 + pi_d_a0_a13_proc_0
     + pi_d_a0_a13_proc_1 - pi_d_a13_a0_proc_2 - pi_d_a13_a0_proc_0
     - pi_d_a13_a0_proc_1 + pi_d_a0_a14_proc_2 - pi_d_a14_a0_proc_2 >= 0
 c3: 903 pi_p_a0_a1 + 903 pi_p_a0_a6 + 903 pi_p_a0_a11 + 903 pi_d_a0_a1_proc_0
     + 903 pi_d_a0_a2_proc_0 + 903 pi_d_a0_a4_proc_0 + 903 pi_d_a0_a6_proc_0
     + 903 pi_d_a0_a7_proc_0 + 903 pi_d_a0_a9_proc_0 + 903 pi_d_a0_a10_proc_0
     + 903 pi_d_a0_a12_proc_0 + 903 pi_d_a0_a13_proc_0 + pi_y1_a0
     + pi_y2_a0_proc_0 >= 0
 c4: 518 pi_p_a0_a1 + 518 pi_p_a0_a6 + 518 pi_p_a0_a11 + 518 pi_d_a0_a2_proc_1
     + 518 pi_d_a0_a4_proc_1 + 518 pi_d_a0_a5_proc_1 + 518 pi_d_a0_a6_proc_1
     + 518 pi_d_a0_a8_proc_1 + 518 pi_d_a0_a9_proc_1 + 518 pi_d_a0_a10_proc_1
     + 518 pi_d_a0_a11_proc_1 + 518 pi_d_a0_a12_proc_1 + 518 pi_d_a0_a13_proc_1
     + pi_y1_a0 + pi_y2_a0_proc_1 >= 0
 c5: 420 pi_p_a0_a1 + 420 pi_p_a0_a6 + 420 pi_p_a0_a11 + 420 pi_d_a0_a3_proc_2
     + 420 pi_d_a0_a4_proc_2 + 420 pi_d_a0_a5_proc_2 + 420 pi_d_a0_a6_proc_2
     + 420 pi_d_a0_a7_proc_2 + 420 pi_d_a0_a8_proc_2 + 420 pi_d_a0_a9_proc_2
     + 420 pi_d_a0_a11_proc_2 + 420 pi_d_a0_a12_proc_2 + 420 pi_d_a0_a13_proc_2
     + 420 pi_d_a0_a14_proc_2 + pi_y1_a0 + pi_y2_a0_proc_2 >= 0
 c6: - pi_p_a0_a1 - pi_p_a2_a1 + pi_p_a1_a4 - pi_p_a12_a1 + pi_p_a1_a6
     - pi_d_a0_a1_proc_0 + pi_d_a1_a0_proc_0 + pi_d_a1_a2_proc_0
     - pi_d_a2_a1_proc_0 + pi_d_a1_a4_proc_0 - pi_d_a4_a1_proc_0
     + pi_d_a1_a6_proc_0 - pi_d_a6_a1_proc_0 + pi_d_a1_a7_proc_0
     - pi_d_a7_a1_proc_0 + pi_d_a1_a9_proc_0 - pi_d_a9_a1_proc_0
     + pi_d_a1_a10_proc_0 - pi_d_a10_a1_proc_0 + pi_d_a1_a12_proc_0
     - pi_d_a12_a1_proc_0 + pi_d_a1_a13_proc_0 - pi_d_a13_a1_proc_0 >= 0
 c7: 1093 pi_p_a1_a4 + 1093 pi_p_a1_a6 + 1093 pi_d_a1_a0_proc_0
     + 1093 pi_d_a1_a2_proc_0 + 1093 pi_d_a1_a4_proc_0 + 1093 pi_d_a1_a6_proc_0
     + 1093 pi_d_a1_a7_proc_0 + 1093 pi_d_a1_a9_proc_0 + 1093 pi_d_a1_a10_proc_0
     + 1093 pi_d_a1_a12_proc_0 + 1093 pi_d_a1_a13_proc_0 + pi_y1_a1
     + pi_y2_a1_proc_0 >= 0
 c8: pi_p_a2_a1 - pi_p_a3_a2 + pi_p_a2_a5 + pi_p_a2_a7 - pi_p_a10_a2
     - pi_p_a11_a2 - pi_d_a0_a2_proc_0 - pi_d_a0_a2_proc_1 + pi_d_a2_a0_proc_0
     + pi_d_a2_a0_proc_1 - pi_d_a1_a2_proc_0 + pi_d_a2_a1_proc_0
     + pi_d_a2_a4_proc_0 + pi_d_a2_a4_proc_1 - pi_d_a4_a2_proc_0
     - pi_d_a4_a2_proc_1 + pi_d_a2_a5_proc_1 - pi_d_a5_a2_proc_1
     + pi_d_a2_a6_proc_0 + pi_d_a2_a6_proc_1 - pi_d_a6_a2_proc_0
     - pi_d_a6_a2_proc_1 + pi_d_a2_a7_proc_0 - pi_d_a7_a2_proc_0
     + pi_d_a2_a8_proc_1 - pi_d_a8_a2_proc_1 + pi_d_a2_a9_proc_0
     + pi_d_a2_a9_proc_1 - pi_d_a9_a2_proc_0 - pi_d_a9_a2_proc_1
     + pi_d_a2_a10_proc_0 + pi_d_a2_a10_proc_1 - pi_d_a10_a2_proc_0
     - pi_d_a10_a2_proc_1 + pi_d_a2_a11_proc_1 - pi_d_a11_a2_proc_1
     + pi_d_a2_a12_proc_0 + pi_d_a2_a12_proc_1 - pi_d_a12_a2_proc_0
     - pi_d_a12_a2_proc_1 + pi_d_a2_a13_proc_0 + pi_d_a2_a13_proc_1
     - pi_d_a13_a2_proc_0 - pi_d_a13_a2_proc_1 >= 0
 c9: 1106 pi_p_a2_a1 + 1106 pi_p_a2_a5 + 1106 pi_p_a2_a7
     + 1106 pi_d_a2_a0_proc_0 + 1106 pi_d_a2_a1_proc_0 + 1106 pi_d_a2_a4_proc_0
     + 1106 pi_d_a2_a6_proc_0 + 1106 pi_d_a2_a7_proc_0 + 1106 pi_d_a2_a9_proc_0
     + 1106 pi_d_a2_a10_proc_0 + 1106 pi_d_a2_a12_proc_0
     + 1106 pi_d_a2_a13_proc_0 + pi_y1_a2 + pi_y2_a2_proc_0 >= 0
 c10: 741 pi_p_a2_a1 + 741 pi_p_a2_a5 + 741 pi_p_a2_a7 + 741 pi_d_a2_a0_proc_1
      + 741 pi_d_a2_a4_proc_1 + 741 pi_d_a2_a5_proc_1 + 741 pi_d_a2_a6_proc_1
      + 741 pi_d_a2_a8_proc_1 + 741 pi_d_a2_a9_proc_1 + 741 pi_d_a2_a10_proc_1
      + 741 pi_d_a2_a11_proc_1 + 741 pi_d_a2_a12_proc_1 + 741 pi_d_a2_a13_proc_1
      + pi_y1_a2 + pi_y2_a2_proc_1 >= 0
 c11: pi_p_a3_a2 + pi_p_a3_a6 - pi_p_a9_a3 - pi_d_a0_a3_proc_2
      + pi_d_a3_a0_proc_2 + pi_d_a3_a4_proc_2 - pi_d_a4_a3_proc_2
      + pi_d_a3_a5_proc_2 - pi_d_a5_a3_proc_2 + pi_d_a3_a6_proc_2
      - pi_d_a6_a3_proc_2 + pi_d_a3_a7_proc_2 - pi_d_a7_a3_proc_2
      + pi_d_a3_a8_proc_2 - pi_d_a8_a3_proc_2 + pi_d_a3_a9_proc_2
      - pi_d_a9_a3_proc_2 + pi_d_a3_a11_proc_2 - pi_d_a11_a3_proc_2
      + pi_d_a3_a12_proc_2 - pi_d_a12_a3_proc_2 + pi_d_a3_a13_proc_2
      - pi_d_a13_a3_proc_2 + pi_d_a3_a14_proc_2 - pi_d_a14_a3_proc_2 >= 0
 c12: 765 pi_p_a3_a2 + 765 pi_p_a3_a6 + 765 pi_d_a3_a0_proc_2
      + 765 pi_d_a3_a4_proc_2 + 765 pi_d_a3_a5_proc_2 + 765 pi_d_a3_a6_proc_2
      + 765 pi_d_a3_a7_proc_2 + 765 pi_d_a3_a8_proc_2 + 765 pi_d_a3_a9_proc_2
      + 765 pi_d_a3_a11_proc_2 + 765 pi_d_a3_a12_proc_2 + 765 pi_d_a3_a13_proc_2
      + 765 pi_d_a3_a14_proc_2 + pi_y1_a3 + pi_y2_a3_proc_2 >= 0
 c13: - pi_p_a1_a4 + pi_p_a4_a11 - pi_d_a0_a4_proc_2 - pi_d_a0_a4_proc_0
      - pi_d_a0_a4_proc_1 + pi_d_a4_a0_proc_2 + pi_d_a4_a0_proc_0
      + pi_d_a4_a0_proc_1 - pi_d_a1_a4_proc_0 + pi_d_a4_a1_proc_0
      - pi_d_a2_a4_proc_0 - pi_d_a2_a4_proc_1 + pi_d_a4_a2_proc_0
      + pi_d_a4_a2_proc_1 - pi_d_a3_a4_proc_2 + pi_d_a4_a3_proc_2
      + pi_d_a4_a5_proc_2 + pi_d_a4_a5_proc_1 - pi_d_a5_a4_proc_2
      - pi_d_a5_a4_proc_1 + pi_d_a4_a6_proc_2 + pi_d_a4_a6_proc_0
      + pi_d_a4_a6_proc_1 - pi_d_a6_a4_proc_2 - pi_d_a6_a4_proc_0
      - pi_d_a6_a4_proc_1 + pi_d_a4_a7_proc_2 + pi_d_a4_a7_proc_0
      - pi_d_a7_a4_proc_2 - pi_d_a7_a4_proc_0 + pi_d_a4_a8_proc_2
      + pi_d_a4_a8_proc_1 - pi_d_a8_a4_proc_2 - pi_d_a8_a4_proc_1
      + pi_d_a4_a9_proc_2 + pi_d_a4_a9_proc_0 + pi_d_a4_a9_proc_1
      - pi_d_a9_a4_proc_2 - pi_d_a9_a4_proc_0 - pi_d_a9_a4_proc_1
      + pi_d_a4_a10_proc_0 + pi_d_a4_a10_proc_1 - pi_d_a10_a4_proc_0
      - pi_d_a10_a4_proc_1 + pi_d_a4_a11_proc_2 + pi_d_a4_a11_proc_1
      - pi_d_a11_a4_proc_2 - pi_d_a11_a4_proc_1 + pi_d_a4_a12_proc_2
      + pi_d_a4_a12_proc_0 + pi_d_a4_a12_proc_1 - pi_d_a12_a4_proc_2
      - pi_d_a12_a4_proc_0 - pi_d_a12_a4_proc_1 + pi_d_a4_a13_proc_2
      + pi_d_a4_a13_proc_0 + pi_d_a4_a13_proc_1 - pi_d_a13_a4_proc_2
      - pi_d_a13_a4_proc_0 - pi_d_a13_a4_proc_1 + pi_d_a4_a14_proc_2
      - pi_d_a14_a4_proc_2 >= 0
 c14: 853 pi_p_a4_a11 + 853 pi_d_a4_a0_proc_0 + 853 pi_d_a4_a1_proc_0
      + 853 pi_d_a4_a2_proc_0 + 853 pi_d_a4_a6_proc_0 + 853 pi_d_a4_a7_proc_0
      + 853 pi_d_a4_a9_proc_0 + 853 pi_d_a4_a10_proc_0 + 853 pi_d_a4_a12_proc_0
      + 853 pi_d_a4_a13_proc_0 + pi_y1_a4 + pi_y2_a4_proc_0 >= 0
 c15: 651 pi_p_a4_a11 + 651 pi_d_a4_a0_proc_1 + 651 pi_d_a4_a2_proc_1
      + 651 pi_d_a4_a5_proc_1 + 651 pi_d_a4_a6_proc_1 + 651 pi_d_a4_a8_proc_1
      + 651 pi_d_a4_a9_proc_1 + 651 pi_d_a4_a10_proc_1 + 651 pi_d_a4_a11_proc_1
      + 651 pi_d_a4_a12_proc_1 + 651 pi_d_a4_a13_proc_1 + pi_y1_a4
      + pi_y2_a4_proc_1 >= 0
 c16: 963 pi_p_a4_a11 + 963 pi_d_a4_a0_proc_2 + 963 pi_d_a4_a3_proc_2
      + 963 pi_d_a4_a5_proc_2 + 963 pi_d_a4_a6_proc_2 + 963 pi_d_a4_a7_proc_2
      + 963 pi_d_a4_a8_proc_2 + 963 pi_d_a4_a9_proc_2 + 963 pi_d_a4_a11_proc_2
      + 963 pi_d_a4_a12_proc_2 + 963 pi_d_a4_a13_proc_2 + 963 pi_d_a4_a14_proc_2
      + pi_y1_a4 + pi_y2_a4_proc_2 >= 0
 c17: - pi_p_a2_a5 + pi_p_a5_a9 + pi_p_a5_a10 - pi_p_a10_a5 - pi_d_a0_a5_proc_2
      - pi_d_a0_a5_proc_1 + pi_d_a5_a0_proc_2 + pi_d_a5_a0_proc_1
      - pi_d_a2_a5_proc_1 + pi_d_a5_a2_proc_1 - pi_d_a3_a5_proc_2
      + pi_d_a5_a3_proc_2 - pi_d_a4_a5_proc_2 - pi_d_a4_a5_proc_1
      + pi_d_a5_a4_proc_2 + pi_d_a5_a4_proc_1 + pi_d_a5_a6_proc_2
      + pi_d_a5_a6_proc_1 - pi_d_a6_a5_proc_2 - pi_d_a6_a5_proc_1
      + pi_d_a5_a7_proc_2 - pi_d_a7_a5_proc_2 + pi_d_a5_a8_proc_2
      + pi_d_a5_a8_proc_1 - pi_d_a8_a5_proc_2 - pi_d_a8_a5_proc_1
      + pi_d_a5_a9_proc_2 + pi_d_a5_a9_proc_1 - pi_d_a9_a5_proc_2
      - pi_d_a9_a5_proc_1 + pi_d_a5_a10_proc_1 - pi_d_a10_a5_proc_1
      + pi_d_a5_a11_proc_2 + pi_d_a5_a11_proc_1 - pi_d_a11_a5_proc_2
      - pi_d_a11_a5_proc_1 + pi_d_a5_a12_proc_2 + pi_d_a5_a12_proc_1
      - pi_d_a12_a5_proc_2 - pi_d_a12_a5_proc_1 + pi_d_a5_a13_proc_2
      + pi_d_a5_a13_proc_1 - pi_d_a13_a5_proc_2 - pi_d_a13_a5_proc_1
      + pi_d_a5_a14_proc_2 - pi_d_a14_a5_proc_2 >= 0
 c18: 1061 pi_p_a5_a9 + 1061 pi_p_a5_a10 + 1061 pi_d_a5_a0_proc_1
      + 1061 pi_d_a5_a2_proc_1 + 1061 pi_d_a5_a4_proc_1 + 1061 pi_d_a5_a6_proc_1
      + 1061 pi_d_a5_a8_proc_1 + 1061 pi_d_a5_a9_proc_1
      + 1061 pi_d_a5_a10_proc_1 + 1061 pi_d_a5_a11_proc_1
      + 1061 pi_d_a5_a12_proc_1 + 1061 pi_d_a5_a13_proc_1 + pi_y1_a5
      + pi_y2_a5_proc_1 >= 0
 c19: 923 pi_p_a5_a9 + 923 pi_p_a5_a10 + 923 pi_d_a5_a0_proc_2
      + 923 pi_d_a5_a3_proc_2 + 923 pi_d_a5_a4_proc_2 + 923 pi_d_a5_a6_proc_2
      + 923 pi_d_a5_a7_proc_2 + 923 pi_d_a5_a8_proc_2 + 923 pi_d_a5_a9_proc_2
      + 923 pi_d_a5_a11_proc_2 + 923 pi_d_a5_a12_proc_2 + 923 pi_d_a5_a13_proc_2
      + 923 pi_d_a5_a14_proc_2 + pi_y1_a5 + pi_y2_a5_proc_2 >= 0
 c20: pi_p_a6_a0 - pi_p_a3_a6 - pi_p_a0_a6 - pi_p_a1_a6 - pi_d_a0_a6_proc_2
      - pi_d_a0_a6_proc_0 - pi_d_a0_a6_proc_1 + pi_d_a6_a0_proc_2
      + pi_d_a6_a0_proc_0 + pi_d_a6_a0_proc_1 - pi_d_a1_a6_proc_0
      + pi_d_a6_a1_proc_0 - pi_d_a2_a6_proc_0 - pi_d_a2_a6_proc_1
      + pi_d_a6_a2_proc_0 + pi_d_a6_a2_proc_1 - pi_d_a3_a6_proc_2
      + pi_d_a6_a3_proc_2 - pi_d_a4_a6_proc_2 - pi_d_a4_a6_proc_0
      - pi_d_a4_a6_proc_1 + pi_d_a6_a4_proc_2 + pi_d_a6_a4_proc_0
      + pi_d_a6_a4_proc_1 - pi_d_a5_a6_proc_2 - pi_d_a5_a6_proc_1
      + pi_d_a6_a5_proc_2 + pi_d_a6_a5_proc_1 + pi_d_a6_a7_proc_2
      + pi_d_a6_a7_proc_0 - pi_d_a7_a6_proc_2 - pi_d_a7_a6_proc_0
      + pi_d_a6_a8_proc_2 + pi_d_a6_a8_proc_1 - pi_d_a8_a6_proc_2
      - pi_d_a8_a6_proc_1 + pi_d_a6_a9_proc_2 + pi_d_a6_a9_proc_0
      + pi_d_a6_a9_proc_1 - pi_d_a9_a6_proc_2 - pi_d_a9_a6_proc_0
      - pi_d_a9_a6_proc_1 + pi_d_a6_a10_proc_0 + pi_d_a6_a10_proc_1
      - pi_d_a10_a6_proc_0 - pi_d_a10_a6_proc_1 + pi_d_a6_a11_proc_2
      + pi_d_a6_a11_proc_1 - pi_d_a11_a6_proc_2 - pi_d_a11_a6_proc_1
      + pi_d_a6_a12_proc_2 + pi_d_a6_a12_proc_0 + pi_d_a6_a12_proc_1
      - pi_d_a12_a6_proc_2 - pi_d_a12_a6_proc_0 - pi_d_a12_a6_proc_1
      + pi_d_a6_a13_proc_2 + pi_d_a6_a13_proc_0 + pi_d_a6_a13_proc_1
      - pi_d_a13_a6_proc_2 - pi_d_a13_a6_proc_0 - pi_d_a13_a6_proc_1
      + pi_d_a6_a14_proc_2 - pi_d_a14_a6_proc_2 >= 0
 c21: 850 pi_p_a6_a0 + 850 pi_d_a6_a0_proc_0 + 850 pi_d_a6_a1_proc_0
      + 850 pi_d_a6_a2_proc_0 + 850 pi_d_a6_a4_proc_0 + 850 pi_d_a6_a7_proc_0
      + 850 pi_d_a6_a9_proc_0 + 850 pi_d_a6_a10_proc_0 + 850 pi_d_a6_a12_proc_0
      + 850 pi_d_a6_a13_proc_0 + pi_y1_a6 + pi_y2_a6_proc_0 >= 0
 c22: 712 pi_p_a6_a0 + 712 pi_d_a6_a0_proc_1 + 712 pi_d_a6_a2_proc_1
      + 712 pi_d_a6_a4_proc_1 + 712 pi_d_a6_a5_proc_1 + 712 pi_d_a6_a8_proc_1
      + 712 pi_d_a6_a9_proc_1 + 712 pi_d_a6_a10_proc_1 + 712 pi_d_a6_a11_proc_1
      + 712 pi_d_a6_a12_proc_1 + 712 pi_d_a6_a13_proc_1 + pi_y1_a6
      + pi_y2_a6_proc_1 >= 0
 c23: 1156 pi_p_a6_a0 + 1156 pi_d_a6_a0_proc_2 + 1156 pi_d_a6_a3_proc_2
      + 1156 pi_d_a6_a4_proc_2 + 1156 pi_d_a6_a5_proc_2 + 1156 pi_d_a6_a7_proc_2
      + 1156 pi_d_a6_a8_proc_2 + 1156 pi_d_a6_a9_proc_2
      + 1156 pi_d_a6_a11_proc_2 + 1156 pi_d_a6_a12_proc_2
      + 1156 pi_d_a6_a13_proc_2 + 1156 pi_d_a6_a14_proc_2 + pi_y1_a6
      + pi_y2_a6_proc_2 >= 0
 c24: - pi_p_a2_a7 + pi_p_a7_a8 + pi_p_a7_a14 - pi_d_a0_a7_proc_2
      - pi_d_a0_a7_proc_0 + pi_d_a7_a0_proc_2 + pi_d_a7_a0_proc_0
      - pi_d_a1_a7_proc_0 + pi_d_a7_a1_proc_0 - pi_d_a2_a7_proc_0
      + pi_d_a7_a2_proc_0 - pi_d_a3_a7_proc_2 + pi_d_a7_a3_proc_2
      - pi_d_a4_a7_proc_2 - pi_d_a4_a7_proc_0 + pi_d_a7_a4_proc_2
      + pi_d_a7_a4_proc_0 - pi_d_a5_a7_proc_2 + pi_d_a7_a5_proc_2
      - pi_d_a6_a7_proc_2 - pi_d_a6_a7_proc_0 + pi_d_a7_a6_proc_2
      + pi_d_a7_a6_proc_0 + pi_d_a7_a8_proc_2 - pi_d_a8_a7_proc_2
      + pi_d_a7_a9_proc_2 + pi_d_a7_a9_proc_0 - pi_d_a9_a7_proc_2
      - pi_d_a9_a7_proc_0 + pi_d_a7_a10_proc_0 - pi_d_a10_a7_proc_0
      + pi_d_a7_a11_proc_2 - pi_d_a11_a7_proc_2 + pi_d_a7_a12_proc_2
      + pi_d_a7_a12_proc_0 - pi_d_a12_a7_proc_2 - pi_d_a12_a7_proc_0
      + pi_d_a7_a13_proc_2 + pi_d_a7_a13_proc_0 - pi_d_a13_a7_proc_2
      - pi_d_a13_a7_proc_0 + pi_d_a7_a14_proc_2 - pi_d_a14_a7_proc_2 >= 0
 c25: 528 pi_p_a7_a8 + 528 pi_p_a7_a14 + 528 pi_d_a7_a0_proc_0
      + 528 pi_d_a7_a1_proc_0 + 528 pi_d_a7_a2_proc_0 + 528 pi_d_a7_a4_proc_0
      + 528 pi_d_a7_a6_proc_0 + 528 pi_d_a7_a9_proc_0 + 528 pi_d_a7_a10_proc_0
      + 528 pi_d_a7_a12_proc_0 + 528 pi_d_a7_a13_proc_0 + pi_y1_a7
      + pi_y2_a7_proc_0 >= 0
 c26: 1082 pi_p_a7_a8 + 1082 pi_p_a7_a14 + 1082 pi_d_a7_a0_proc_2
      + 1082 pi_d_a7_a3_proc_2 + 1082 pi_d_a7_a4_proc_2 + 1082 pi_d_a7_a5_proc_2
      + 1082 pi_d_a7_a6_proc_2 + 1082 pi_d_a7_a8_proc_2 + 1082 pi_d_a7_a9_proc_2
      + 1082 pi_d_a7_a11_proc_2 + 1082 pi_d_a7_a12_proc_2
      + 1082 pi_d_a7_a13_proc_2 + 1082 pi_d_a7_a14_proc_2 + pi_y1_a7
      + pi_y2_a7_proc_2 >= 0
 c27: - pi_p_a7_a8 + pi_p_a8_a12 - pi_d_a0_a8_proc_2 - pi_d_a0_a8_proc_1
      + pi_d_a8_a0_proc_2 + pi_d_a8_a0_proc_1 - pi_d_a2_a8_proc_1
      + pi_d_a8_a2_proc_1 - pi_d_a3_a8_proc_2 + pi_d_a8_a3_proc_2
      - pi_d_a4_a8_proc_2 - pi_d_a4_a8_proc_1 + pi_d_a8_a4_proc_2
      + pi_d_a8_a4_proc_1 - pi_d_a5_a8_proc_2 - pi_d_a5_a8_proc_1
      + pi_d_a8_a5_proc_2 + pi_d_a8_a5_proc_1 - pi_d_a6_a8_proc_2
      - pi_d_a6_a8_proc_1 + pi_d_a8_a6_proc_2 + pi_d_a8_a6_proc_1
      - pi_d_a7_a8_proc_2 + pi_d_a8_a7_proc_2 + pi_d_a8_a9_proc_2
      + pi_d_a8_a9_proc_1 - pi_d_a9_a8_proc_2 - pi_d_a9_a8_proc_1
      + pi_d_a8_a10_proc_1 - pi_d_a10_a8_proc_1 + pi_d_a8_a11_proc_2
      + pi_d_a8_a11_proc_1 - pi_d_a11_a8_proc_2 - pi_d_a11_a8_proc_1
      + pi_d_a8_a12_proc_2 + pi_d_a8_a12_proc_1 - pi_d_a12_a8_proc_2
      - pi_d_a12_a8_proc_1 + pi_d_a8_a13_proc_2 + pi_d_a8_a13_proc_1
      - pi_d_a13_a8_proc_2 - pi_d_a13_a8_proc_1 + pi_d_a8_a14_proc_2
      - pi_d_a14_a8_proc_2 >= 0
 c28: 859 pi_p_a8_a12 + 859 pi_d_a8_a0_proc_1 + 859 pi_d_a8_a2_proc_1
      + 859 pi_d_a8_a4_proc_1 + 859 pi_d_a8_a5_proc_1 + 859 pi_d_a8_a6_proc_1
      + 859 pi_d_a8_a9_proc_1 + 859 pi_d_a8_a10_proc_1 + 859 pi_d_a8_a11_proc_1
      + 859 pi_d_a8_a12_proc_1 + 859 pi_d_a8_a13_proc_1 + pi_y1_a8
      + pi_y2_a8_proc_1 >= 0
 c29: 952 pi_p_a8_a12 + 952 pi_d_a8_a0_proc_2 + 952 pi_d_a8_a3_proc_2
      + 952 pi_d_a8_a4_proc_2 + 952 pi_d_a8_a5_proc_2 + 952 pi_d_a8_a6_proc_2
      + 952 pi_d_a8_a7_proc_2 + 952 pi_d_a8_a9_proc_2 + 952 pi_d_a8_a11_proc_2
      + 952 pi_d_a8_a12_proc_2 + 952 pi_d_a8_a13_proc_2 + 952 pi_d_a8_a14_proc_2
      + pi_y1_a8 + pi_y2_a8_proc_2 >= 0
 c30: - pi_p_a5_a9 + pi_p_a9_a13 + pi_p_a9_a3 + pi_p_a9_a12 - pi_d_a0_a9_proc_2
      - pi_d_a0_a9_proc_0 - pi_d_a0_a9_proc_1 + pi_d_a9_a0_proc_2
      + pi_d_a9_a0_proc_0 + pi_d_a9_a0_proc_1 - pi_d_a1_a9_proc_0
      + pi_d_a9_a1_proc_0 - pi_d_a2_a9_proc_0 - pi_d_a2_a9_proc_1
      + pi_d_a9_a2_proc_0 + pi_d_a9_a2_proc_1 - pi_d_a3_a9_proc_2
      + pi_d_a9_a3_proc_2 - pi_d_a4_a9_proc_2 - pi_d_a4_a9_proc_0
      - pi_d_a4_a9_proc_1 + pi_d_a9_a4_proc_2 + pi_d_a9_a4_proc_0
      + pi_d_a9_a4_proc_1 - pi_d_a5_a9_proc_2 - pi_d_a5_a9_proc_1
      + pi_d_a9_a5_proc_2 + pi_d_a9_a5_proc_1 - pi_d_a6_a9_proc_2
      - pi_d_a6_a9_proc_0 - pi_d_a6_a9_proc_1 + pi_d_a9_a6_proc_2
      + pi_d_a9_a6_proc_0 + pi_d_a9_a6_proc_1 - pi_d_a7_a9_proc_2
      - pi_d_a7_a9_proc_0 + pi_d_a9_a7_proc_2 + pi_d_a9_a7_proc_0
      - pi_d_a8_a9_proc_2 - pi_d_a8_a9_proc_1 + pi_d_a9_a8_proc_2
      + pi_d_a9_a8_proc_1 + pi_d_a9_a10_proc_0 + pi_d_a9_a10_proc_1
      - pi_d_a10_a9_proc_0 - pi_d_a10_a9_proc_1 + pi_d_a9_a11_proc_2
      + pi_d_a9_a11_proc_1 - pi_d_a11_a9_proc_2 - pi_d_a11_a9_proc_1
      + pi_d_a9_a12_proc_2 + pi_d_a9_a12_proc_0 + pi_d_a9_a12_proc_1
      - pi_d_a12_a9_proc_2 - pi_d_a12_a9_proc_0 - pi_d_a12_a9_proc_1
      + pi_d_a9_a13_proc_2 + pi_d_a9_a13_proc_0 + pi_d_a9_a13_proc_1
      - pi_d_a13_a9_proc_2 - pi_d_a13_a9_proc_0 - pi_d_a13_a9_proc_1
      + pi_d_a9_a14_proc_2 - pi_d_a14_a9_proc_2 >= 0
 c31: 916 pi_p_a9_a13 + 916 pi_p_a9_a3 + 916 pi_p_a9_a12 + 916 pi_d_a9_a0_proc_0
      + 916 pi_d_a9_a1_proc_0 + 916 pi_d_a9_a2_proc_0 + 916 pi_d_a9_a4_proc_0
      + 916 pi_d_a9_a6_proc_0 + 916 pi_d_a9_a7_proc_0 + 916 pi_d_a9_a10_proc_0
      + 916 pi_d_a9_a12_proc_0 + 916 pi_d_a9_a13_proc_0 + pi_y1_a9
      + pi_y2_a9_proc_0 >= 0
 c32: 1196 pi_p_a9_a13 + 1196 pi_p_a9_a3 + 1196 pi_p_a9_a12
      + 1196 pi_d_a9_a0_proc_1 + 1196 pi_d_a9_a2_proc_1 + 1196 pi_d_a9_a4_proc_1
      + 1196 pi_d_a9_a5_proc_1 + 1196 pi_d_a9_a6_proc_1 + 1196 pi_d_a9_a8_proc_1
      + 1196 pi_d_a9_a10_proc_1 + 1196 pi_d_a9_a11_proc_1
      + 1196 pi_d_a9_a12_proc_1 + 1196 pi_d_a9_a13_proc_1 + pi_y1_a9
      + pi_y2_a9_proc_1 >= 0
 c33: 1152 pi_p_a9_a13 + 1152 pi_p_a9_a3 + 1152 pi_p_a9_a12
      + 1152 pi_d_a9_a0_proc_2 + 1152 pi_d_a9_a3_proc_2 + 1152 pi_d_a9_a4_proc_2
      + 1152 pi_d_a9_a5_proc_2 + 1152 pi_d_a9_a6_proc_2 + 1152 pi_d_a9_a7_proc_2
      + 1152 pi_d_a9_a8_proc_2 + 1152 pi_d_a9_a11_proc_2
      + 1152 pi_d_a9_a12_proc_2 + 1152 pi_d_a9_a13_proc_2
      + 1152 pi_d_a9_a14_proc_2 + pi_y1_a9 + pi_y2_a9_proc_2 >= 0
 c34: pi_p_a10_a2 + pi_p_a10_a11 - pi_p_a5_a10 + pi_p_a10_a5
      - pi_d_a0_a10_proc_0 - pi_d_a0_a10_proc_1 + pi_d_a10_a0_proc_0
      + pi_d_a10_a0_proc_1 - pi_d_a1_a10_proc_0 + pi_d_a10_a1_proc_0
      - pi_d_a2_a10_proc_0 - pi_d_a2_a10_proc_1 + pi_d_a10_a2_proc_0
      + pi_d_a10_a2_proc_1 - pi_d_a4_a10_proc_0 - pi_d_a4_a10_proc_1
      + pi_d_a10_a4_proc_0 + pi_d_a10_a4_proc_1 - pi_d_a5_a10_proc_1
      + pi_d_a10_a5_proc_1 - pi_d_a6_a10_proc_0 - pi_d_a6_a10_proc_1
      + pi_d_a10_a6_proc_0 + pi_d_a10_a6_proc_1 - pi_d_a7_a10_proc_0
      + pi_d_a10_a7_proc_0 - pi_d_a8_a10_proc_1 + pi_d_a10_a8_proc_1
      - pi_d_a9_a10_proc_0 - pi_d_a9_a10_proc_1 + pi_d_a10_a9_proc_0
      + pi_d_a10_a9_proc_1 + pi_d_a10_a11_proc_1 - pi_d_a11_a10_proc_1
      + pi_d_a10_a12_proc_0 + pi_d_a10_a12_proc_1 - pi_d_a12_a10_proc_0
      - pi_d_a12_a10_proc_1 + pi_d_a10_a13_proc_0 + pi_d_a10_a13_proc_1
      - pi_d_a13_a10_proc_0 - pi_d_a13_a10_proc_1 >= 0
 c35: 973 pi_p_a10_a2 + 973 pi_p_a10_a11 + 973 pi_p_a10_a5
      + 973 pi_d_a10_a0_proc_0 + 973 pi_d_a10_a1_proc_0 + 973 pi_d_a10_a2_proc_0
      + 973 pi_d_a10_a4_proc_0 + 973 pi_d_a10_a6_proc_0 + 973 pi_d_a10_a7_proc_0
      + 973 pi_d_a10_a9_proc_0 + 973 pi_d_a10_a12_proc_0
      + 973 pi_d_a10_a13_proc_0 + pi_y1_a10 + pi_y2_a10_proc_0 >= 0
 c36: 860 pi_p_a10_a2 + 860 pi_p_a10_a11 + 860 pi_p_a10_a5
      + 860 pi_d_a10_a0_proc_1 + 860 pi_d_a10_a2_proc_1 + 860 pi_d_a10_a4_proc_1
      + 860 pi_d_a10_a5_proc_1 + 860 pi_d_a10_a6_proc_1 + 860 pi_d_a10_a8_proc_1
      + 860 pi_d_a10_a9_proc_1 + 860 pi_d_a10_a11_proc_1
      + 860 pi_d_a10_a12_proc_1 + 860 pi_d_a10_a13_proc_1 + pi_y1_a10
      + pi_y2_a10_proc_1 >= 0
 c37: - pi_p_a10_a11 - pi_p_a4_a11 + pi_p_a11_a2 + pi_p_a11_a12 - pi_p_a0_a11
      - pi_d_a0_a11_proc_2 - pi_d_a0_a11_proc_1 + pi_d_a11_a0_proc_2
      + pi_d_a11_a0_proc_1 - pi_d_a2_a11_proc_1 + pi_d_a11_a2_proc_1
      - pi_d_a3_a11_proc_2 + pi_d_a11_a3_proc_2 - pi_d_a4_a11_proc_2
      - pi_d_a4_a11_proc_1 + pi_d_a11_a4_proc_2 + pi_d_a11_a4_proc_1
      - pi_d_a5_a11_proc_2 - pi_d_a5_a11_proc_1 + pi_d_a11_a5_proc_2
      + pi_d_a11_a5_proc_1 - pi_d_a6_a11_proc_2 - pi_d_a6_a11_proc_1
      + pi_d_a11_a6_proc_2 + pi_d_a11_a6_proc_1 - pi_d_a7_a11_proc_2
      + pi_d_a11_a7_proc_2 - pi_d_a8_a11_proc_2 - pi_d_a8_a11_proc_1
      + pi_d_a11_a8_proc_2 + pi_d_a11_a8_proc_1 - pi_d_a9_a11_proc_2
      - pi_d_a9_a11_proc_1 + pi_d_a11_a9_proc_2 + pi_d_a11_a9_proc_1
      - pi_d_a10_a11_proc_1 + pi_d_a11_a10_proc_1 + pi_d_a11_a12_proc_2
      + pi_d_a11_a12_proc_1 - pi_d_a12_a11_proc_2 - pi_d_a12_a11_proc_1
      + pi_d_a11_a13_proc_2 + pi_d_a11_a13_proc_1 - pi_d_a13_a11_proc_2
      - pi_d_a13_a11_proc_1 + pi_d_a11_a14_proc_2 - pi_d_a14_a11_proc_2 >= 0
 c38: 415 pi_p_a11_a2 + 415 pi_p_a11_a12 + 415 pi_d_a11_a0_proc_1
      + 415 pi_d_a11_a2_proc_1 + 415 pi_d_a11_a4_proc_1 + 415 pi_d_a11_a5_proc_1
      + 415 pi_d_a11_a6_proc_1 + 415 pi_d_a11_a8_proc_1 + 415 pi_d_a11_a9_proc_1
      + 415 pi_d_a11_a10_proc_1 + 415 pi_d_a11_a12_proc_1
      + 415 pi_d_a11_a13_proc_1 + pi_y1_a11 + pi_y2_a11_proc_1 >= 0
 c39: 1090 pi_p_a11_a2 + 1090 pi_p_a11_a12 + 1090 pi_d_a11_a0_proc_2
      + 1090 pi_d_a11_a3_proc_2 + 1090 pi_d_a11_a4_proc_2
      + 1090 pi_d_a11_a5_proc_2 + 1090 pi_d_a11_a6_proc_2
      + 1090 pi_d_a11_a7_proc_2 + 1090 pi_d_a11_a8_proc_2
      + 1090 pi_d_a11_a9_proc_2 + 1090 pi_d_a11_a12_proc_2
      + 1090 pi_d_a11_a13_proc_2 + 1090 pi_d_a11_a14_proc_2 + pi_y1_a11
      + pi_y2_a11_proc_2 >= 0
 c40: pi_p_a12_a1 - pi_p_a8_a12 - pi_p_a11_a12 - pi_p_a9_a12
      - pi_d_a0_a12_proc_2 - pi_d_a0_a12_proc_0 - pi_d_a0_a12_proc_1
      + pi_d_a12_a0_proc_2 + pi_d_a12_a0_proc_0 + pi_d_a12_a0_proc_1
      - pi_d_a1_a12_proc_0 + pi_d_a12_a1_proc_0 - pi_d_a2_a12_proc_0
      - pi_d_a2_a12_proc_1 + pi_d_a12_a2_proc_0 + pi_d_a12_a2_proc_1
      - pi_d_a3_a12_proc_2 + pi_d_a12_a3_proc_2 - pi_d_a4_a12_proc_2
      - pi_d_a4_a12_proc_0 - pi_d_a4_a12_proc_1 + pi_d_a12_a4_proc_2
      + pi_d_a12_a4_proc_0 + pi_d_a12_a4_proc_1 - pi_d_a5_a12_proc_2
      - pi_d_a5_a12_proc_1 + pi_d_a12_a5_proc_2 + pi_d_a12_a5_proc_1
      - pi_d_a6_a12_proc_2 - pi_d_a6_a12_proc_0 - pi_d_a6_a12_proc_1
      + pi_d_a12_a6_proc_2 + pi_d_a12_a6_proc_0 + pi_d_a12_a6_proc_1
      - pi_d_a7_a12_proc_2 - pi_d_a7_a12_proc_0 + pi_d_a12_a7_proc_2
      + pi_d_a12_a7_proc_0 - pi_d_a8_a12_proc_2 - pi_d_a8_a12_proc_1
      + pi_d_a12_a8_proc_2 + pi_d_a12_a8_proc_1 - pi_d_a9_a12_proc_2
      - pi_d_a9_a12_proc_0 - pi_d_a9_a12_proc_1 + pi_d_a12_a9_proc_2
      + pi_d_a12_a9_proc_0 + pi_d_a12_a9_proc_1 - pi_d_a10_a12_proc_0
      - pi_d_a10_a12_proc_1 + pi_d_a12_a10_proc_0 + pi_d_a12_a10_proc_1
      - pi_d_a11_a12_proc_2 - pi_d_a11_a12_proc_1 + pi_d_a12_a11_proc_2
      + pi_d_a12_a11_proc_1 + pi_d_a12_a13_proc_2 + pi_d_a12_a13_proc_0
      + pi_d_a12_a13_proc_1 - pi_d_a13_a12_proc_2 - pi_d_a13_a12_proc_0
      - pi_d_a13_a12_proc_1 + pi_d_a12_a14_proc_2 - pi_d_a14_a12_proc_2 >= 0
 c41: 743 pi_p_a12_a1 + 743 pi_d_a12_a0_proc_0 + 743 pi_d_a12_a1_proc_0
      + 743 pi_d_a12_a2_proc_0 + 743 pi_d_a12_a4_proc_0 + 743 pi_d_a12_a6_proc_0
      + 743 pi_d_a12_a7_proc_0 + 743 pi_d_a12_a9_proc_0
      + 743 pi_d_a12_a10_proc_0 + 743 pi_d_a12_a13_proc_0 + pi_y1_a12
      + pi_y2_a12_proc_0 >= 0
 c42: 1103 pi_p_a12_a1 + 1103 pi_d_a12_a0_proc_1 + 1103 pi_d_a12_a2_proc_1
      + 1103 pi_d_a12_a4_proc_1 + 1103 pi_d_a12_a5_proc_1
      + 1103 pi_d_a12_a6_proc_1 + 1103 pi_d_a12_a8_proc_1
      + 1103 pi_d_a12_a9_proc_1 + 1103 pi_d_a12_a10_proc_1
      + 1103 pi_d_a12_a11_proc_1 + 1103 pi_d_a12_a13_proc_1 + pi_y1_a12
      + pi_y2_a12_proc_1 >= 0
 c43: 1294 pi_p_a12_a1 + 1294 pi_d_a12_a0_proc_2 + 1294 pi_d_a12_a3_proc_2
      + 1294 pi_d_a12_a4_proc_2 + 1294 pi_d_a12_a5_proc_2
      + 1294 pi_d_a12_a6_proc_2 + 1294 pi_d_a12_a7_proc_2
      + 1294 pi_d_a12_a8_proc_2 + 1294 pi_d_a12_a9_proc_2
      + 1294 pi_d_a12_a11_proc_2 + 1294 pi_d_a12_a13_proc_2
      + 1294 pi_d_a12_a14_proc_2 + pi_y1_a12 + pi_y2_a12_proc_2 >= 0
 c44: - pi_p_a9_a13 - pi_d_a0_a13_proc_2 - pi_d_a0_a13_proc_0
      - pi_d_a0_a13_proc_1 + pi_d_a13_a0_proc_2 + pi_d_a13_a0_proc_0
      + pi_d_a13_a0_proc_1 - pi_d_a1_a13_proc_0 + pi_d_a13_a1_proc_0
      - pi_d_a2_a13_proc_0 - pi_d_a2_a13_proc_1 + pi_d_a13_a2_proc_0
      + pi_d_a13_a2_proc_1 - pi_d_a3_a13_proc_2 + pi_d_a13_a3_proc_2
      - pi_d_a4_a13_proc_2 - pi_d_a4_a13_proc_0 - pi_d_a4_a13_proc_1
      + pi_d_a13_a4_proc_2 + pi_d_a13_a4_proc_0 + pi_d_a13_a4_proc_1
      - pi_d_a5_a13_proc_2 - pi_d_a5_a13_proc_1 + pi_d_a13_a5_proc_2
      + pi_d_a13_a5_proc_1 - pi_d_a6_a13_proc_2 - pi_d_a6_a13_proc_0
      - pi_d_a6_a13_proc_1 + pi_d_a13_a6_proc_2 + pi_d_a13_a6_proc_0
      + pi_d_a13_a6_proc_1 - pi_d_a7_a13_proc_2 - pi_d_a7_a13_proc_0
      + pi_d_a13_a7_proc_2 + pi_d_a13_a7_proc_0 - pi_d_a8_a13_proc_2
      - pi_d_a8_a13_proc_1 + pi_d_a13_a8_proc_2 + pi_d_a13_a8_proc_1
      - pi_d_a9_a13_proc_2 - pi_d_a9_a13_proc_0 - pi_d_a9_a13_proc_1
      + pi_d_a13_a9_proc_2 + pi_d_a13_a9_proc_0 + pi_d_a13_a9_proc_1
      - pi_d_a10_a13_proc_0 - pi_d_a10_a13_proc_1 + pi_d_a13_a10_proc_0
      + pi_d_a13_a10_proc_1 - pi_d_a11_a13_proc_2 - pi_d_a11_a13_proc_1
      + pi_d_a13_a11_proc_2 + pi_d_a13_a11_proc_1 - pi_d_a12_a13_proc_2
      - pi_d_a12_a13_proc_0 - pi_d_a12_a13_proc_1 + pi_d_a13_a12_proc_2
      + pi_d_a13_a12_proc_0 + pi_d_a13_a12_proc_1 + pi_d_a13_a14_proc_2
      - pi_d_a14_a13_proc_2 >= 0
 c45: 747 pi_d_a13_a0_proc_0 + 747 pi_d_a13_a1_proc_0 + 747 pi_d_a13_a2_proc_0
      + 747 pi_d_a13_a4_proc_0 + 747 pi_d_a13_a6_proc_0 + 747 pi_d_a13_a7_proc_0
      + 747 pi_d_a13_a9_proc_0 + 747 pi_d_a13_a10_proc_0
      + 747 pi_d_a13_a12_proc_0 + pi_y1_a13 + pi_y2_a13_proc_0 >= 0
 c46: 963 pi_d_a13_a0_proc_1 + 963 pi_d_a13_a2_proc_1 + 963 pi_d_a13_a4_proc_1
      + 963 pi_d_a13_a5_proc_1 + 963 pi_d_a13_a6_proc_1 + 963 pi_d_a13_a8_proc_1
      + 963 pi_d_a13_a9_proc_1 + 963 pi_d_a13_a10_proc_1
      + 963 pi_d_a13_a11_proc_1 + 963 pi_d_a13_a12_proc_1 + pi_y1_a13
      + pi_y2_a13_proc_1 >= 0
 c47: 1237 pi_d_a13_a0_proc_2 + 1237 pi_d_a13_a3_proc_2
      + 1237 pi_d_a13_a4_proc_2 + 1237 pi_d_a13_a5_proc_2
      + 1237 pi_d_a13_a6_proc_2 + 1237 pi_d_a13_a7_proc_2
      + 1237 pi_d_a13_a8_proc_2 + 1237 pi_d_a13_a9_proc_2
      + 1237 pi_d_a13_a11_proc_2 + 1237 pi_d_a13_a12_proc_2
      + 1237 pi_d_a13_a14_proc_2 + pi_y1_a13 + pi_y2_a13_proc_2 >= 0
 c48: pi_p_a14_a0 - pi_p_a7_a14 - pi_d_a0_a14_proc_2 + pi_d_a14_a0_proc_2
      - pi_d_a3_a14_proc_2 + pi_d_a14_a3_proc_2 - pi_d_a4_a14_proc_2
      + pi_d_a14_a4_proc_2 - pi_d_a5_a14_proc_2 + pi_d_a14_a5_proc_2
      - pi_d_a6_a14_proc_2 + pi_d_a14_a6_proc_2 - pi_d_a7_a14_proc_2
      + pi_d_a14_a7_proc_2 - pi_d_a8_a14_proc_2 + pi_d_a14_a8_proc_2
      - pi_d_a9_a14_proc_2 + pi_d_a14_a9_proc_2 - pi_d_a11_a14_proc_2
      + pi_d_a14_a11_proc_2 - pi_d_a12_a14_proc_2 + pi_d_a14_a12_proc_2
      - pi_d_a13_a14_proc_2 + pi_d_a14_a13_proc_2 >= 0
 c49: 1044 pi_p_a14_a0 + 1044 pi_d_a14_a0_proc_2 + 1044 pi_d_a14_a3_proc_2
      + 1044 pi_d_a14_a4_proc_2 + 1044 pi_d_a14_a5_proc_2
      + 1044 pi_d_a14_a6_proc_2 + 1044 pi_d_a14_a7_proc_2
      + 1044 pi_d_a14_a8_proc_2 + 1044 pi_d_a14_a9_proc_2
      + 1044 pi_d_a14_a11_proc_2 + 1044 pi_d_a14_a12_proc_2
      + 1044 pi_d_a14_a13_proc_2 + pi_y1_a14 + pi_y2_a14_proc_2 >= 0

Bounds
       pi_y1_a0 Free
       pi_y1_a1 Free
       pi_y1_a2 Free
       pi_y1_a3 Free
       pi_y1_a4 Free
       pi_y1_a5 Free
       pi_y1_a6 Free
       pi_y1_a7 Free
       pi_y1_a8 Free
       pi_y1_a9 Free
       pi_y1_a10 Free
       pi_y1_a11 Free
       pi_y1_a12 Free
       pi_y1_a13 Free
       pi_y1_a14 Free
End
